0000000000000000
0000110000000000
0011111111000000
0001111111100000
0001111111110000
0000000111110000
0000000011110000
0000000011110000
0000000011110000
0000000111110000
0001111111110000
0001111111100000
0011111111000000
0000111000000000
0000000000000000
0000000000000000
